c defined variables: 
p cnf 85 57
a 1 2 3 4 5 6 7 8 9 10 11 12 13 0
d 14 5 6 8 0
d 15 2 4 8 9 12 0
d 16 3 5 0
d 17 2 6 0
d 18 2 11 0
d 19 2 5 9 0
d 20 5 6 7 8 9 12 13 0
d 21 1 10 12 0
d 22 0
d 23 6 9 11 0
d 24 10 12 0
d 25 1 10 13 0
d 26 1 2 3 8 9 0
d 27 1 6 0
2 -12 15 -17 -18 0
6 -12 15 -17 -18 0
-5 -9 -15 16 -19 0
5 -7 -14 19 -20 0
-6 10 -16 17 -21 0
4 9 -15 -18 -21 0
5 12 17 19 -21 0
5 8 -16 -20 22 0
-11 -12 19 -21 -23 0
11 -12 18 -20 23 0
-8 -12 -18 20 23 0
9 -10 -20 21 23 0
-6 11 16 22 23 0
2 -13 -18 20 -24 0
2 3 -16 18 24 0
-8 13 -18 20 24 0
1 -8 15 18 -25 0
-5 7 14 -20 -25 0
-5 -10 16 -20 -25 0
-1 6 18 20 -25 0
-9 -13 14 23 -25 0
2 9 19 24 -25 0
10 -13 -16 18 25 0
-1 -7 17 -20 25 0
-5 -10 -20 21 25 0
-1 8 15 20 -26 0
-7 -13 16 20 -26 0
-10 12 -21 22 -26 0
3 -9 17 -23 -26 0
-1 8 15 -24 -26 0
6 10 14 -25 -26 0
-8 -9 -21 -25 -26 0
6 8 -14 -17 26 0
-8 -9 14 -17 26 0
2 -9 -14 17 26 0
1 -8 -14 18 26 0
-1 7 14 20 26 0
-2 -7 -15 20 26 0
-2 7 -15 20 26 0
6 -11 18 23 26 0
-5 8 20 -25 26 0
3 -6 -23 25 26 0
1 -11 18 -20 -27 0
-10 13 -23 -25 -27 0
2 -8 -14 -26 -27 0
8 9 -17 -26 -27 0
-1 3 17 -26 -27 0
-1 -8 15 -16 27 0
-5 12 16 -20 27 0
-5 7 19 20 27 0
-2 -6 -15 -21 27 0
2 -12 15 -22 27 0
1 -12 -15 22 27 0
6 12 -18 24 27 0
-9 -10 19 24 27 0
-1 12 -21 24 27 0
-2 -10 -25 -26 27 0
